Version identifier: 20.1.0.0 | 2020-11-10 | 9bedb6d68
Tried aggregator 2 times.
MIP Presolve eliminated 2520 rows and 1355 columns.
MIP Presolve modified 6234 coefficients.
Aggregator did 202 substitutions.
Reduced MIP has 3687 rows, 2858 columns, and 12096 nonzeros.
Reduced MIP has 547 binaries, 2311 generals, 0 SOSs, and 0 indicators.
Presolve time = 0.03 sec. (14.51 ticks)
Probing fixed 80 vars, tightened 714 bounds.
Probing time = 0.01 sec. (1.50 ticks)
Cover probing fixed 0 vars, tightened 168 bounds.
Tried aggregator 2 times.
MIP Presolve eliminated 1622 rows and 222 columns.
MIP Presolve modified 339 coefficients.
Aggregator did 82 substitutions.
Reduced MIP has 1983 rows, 2554 columns, and 6436 nonzeros.
Reduced MIP has 927 binaries, 1627 generals, 0 SOSs, and 0 indicators.
Presolve time = 0.02 sec. (8.92 ticks)
Probing time = 0.00 sec. (0.64 ticks)
Tried aggregator 1 time.
Detecting symmetries...
MIP Presolve modified 741 coefficients.
Reduced MIP has 1983 rows, 2554 columns, and 6436 nonzeros.
Reduced MIP has 927 binaries, 1627 generals, 0 SOSs, and 0 indicators.
Presolve time = 0.01 sec. (5.49 ticks)
Probing time = 0.00 sec. (0.61 ticks)
Clique table members: 165.
MIP emphasis: balance optimality and feasibility.
MIP search method: dynamic search.
Parallel mode: deterministic, using up to 24 threads.
Root relaxation solution time = 0.02 sec. (4.36 ticks)

        Nodes                                         Cuts/
   Node  Left     Objective  IInf  Best Integer    Best Bound    ItCnt     Gap

      0     0        0.0000    93                      0.0000      393         
*     0+    0                           10.0000        0.0000           100.00%
      0     0        0.1429   127       10.0000     Cuts: 312      881   98.57%
      0     0        1.0000   132       10.0000     Cuts: 168     1220   90.00%
      0     0        1.0000   158       10.0000      Cuts: 64     1363   90.00%
      0     0        1.0000    37       10.0000       Cuts: 4     1380   90.00%
*     0+    0                            7.0000        1.0000            85.71%
      0     0        cutoff              7.0000        7.0000     1468    0.00%
Elapsed time = 1.03 sec. (196.20 ticks, tree = 0.01 MB, solutions = 2)

Implied bound cuts applied:  150
Flow cuts applied:  5
Mixed integer rounding cuts applied:  13
Zero-half cuts applied:  105
Lift and project cuts applied:  25
Gomory fractional cuts applied:  47

Root node processing (before b&c):
  Real time             =    1.03 sec. (196.39 ticks)
Parallel b&c, 24 threads:
  Real time             =    0.00 sec. (0.00 ticks)
  Sync time (average)   =    0.00 sec.
  Wait time (average)   =    0.00 sec.
                          ------------
Total (root+branch&cut) =    1.03 sec. (196.39 ticks)

Solution status = Optimal
Solution LB = 7
Solution UB = 7
Runtime = 1.04118 seconds
	Command being timed: "/home/min/git_repos/CS598MEBProject/CNT-ILP/build/cnt -s 2 ./output/k8_n40/simC_c1_k8_n40_u1_s3_del04.input-left.cnp"
	User time (seconds): 12.77
	System time (seconds): 0.10
	Percent of CPU this job got: 1167%
	Elapsed (wall clock) time (h:mm:ss or m:ss): 0:01.10
	Average shared text size (kbytes): 0
	Average unshared data size (kbytes): 0
	Average stack size (kbytes): 0
	Average total size (kbytes): 0
	Maximum resident set size (kbytes): 153556
	Average resident set size (kbytes): 0
	Major (requiring I/O) page faults: 0
	Minor (reclaiming a frame) page faults: 37827
	Voluntary context switches: 6451
	Involuntary context switches: 1642
	Swaps: 0
	File system inputs: 0
	File system outputs: 16
	Socket messages sent: 0
	Socket messages received: 0
	Signals delivered: 0
	Page size (bytes): 4096
	Exit status: 0
